c User generated cnf file
p cnf 15 52
-7 7 5 0 
-2 6 2 0 
1 12 -5 0 
12 11 -4 0 
6 -7 5 0 
4 8 -7 0 
-11 11 15 0 
-6 1 6 0 
8 -4 13 0 
-4 15 10 0 
15 -12 6 0 
-15 2 2 0 
-6 3 4 0 
10 4 -6 0 
10 9 -8 0 
5 9 -12 0 
15 -14 9 0 
15 -13 15 0 
-13 4 7 0 
1 7 -12 0 
15 -14 5 0 
7 -3 11 0 
3 -9 5 0 
14 -4 4 0 
1 -4 4 0 
-2 10 8 0 
8 -9 13 0 
15 -3 14 0 
5 15 -11 0 
6 -5 6 0 
4 9 -6 0 
-3 8 8 0 
7 -9 6 0 
2 4 -14 0 
13 -11 7 0 
11 5 -14 0 
9 12 -4 0 
-8 6 2 0 
-1 9 12 0 
7 -5 1 0 
14 -14 10 0 
9 -5 7 0 
-12 14 8 0 
3 6 -11 0 
-6 5 12 0 
4 -2 12 0 
5 -6 14 0 
6 7 -4 0 
-7 2 14 0 
11 15 -12 0 
-7 6 3 0 
11 7 -1 0 
